p cnf 24 58
a 4 22 0
e 1 2 3 5 6 7 8 9 10 11 12 13 14 15 16 17 18 19 20 21 23 24 0
1 2 0
-1 2 0
4 -2 0
4 -3 0
2 3 -4 0
-7 -6 0
-7 -6 0
6 7 0
5 7 -8 0
-5 -7 -8 0
5 -7 8 0
-5 7 8 0
-4 -8 -9 0
4 8 -9 0
-4 8 9 0
4 -8 9 0
-11 10 0
-11 -2 0
-10 2 11 0
-14 6 0
-14 -13 0
-6 13 14 0
15 -12 0
15 14 0
12 -14 -15 0
16 -1 0
16 15 0
1 -15 -16 0
17 -16 0
17 -6 0
16 6 -17 0
18 -11 0
18 17 0
11 -17 -18 0
19 9 0
19 -18 0
-9 18 -19 0
6 20 -21 0
-6 -20 -21 0
6 -20 21 0
-6 20 21 0
20 13 -22 0
-20 -13 -22 0
20 -13 22 0
-20 13 22 0
-21 22 -23 0
21 -22 -23 0
-21 -22 23 0
21 22 23 0
24 19 0
24 -23 0
-19 23 -24 0
11 -15 18 22 -20 0
-21 -2 18 0
10 -15 -23 -20 2 7 9 0
7 15 10 8 -12 6 -5 0
-8 6 3 12 7 -1 0
24 0
